Version identifier: 22.1.1.0 | 2022-11-28 | 9160aff4d
CPXPARAM_Read_DataCheck                          1
Tried aggregator 2 times.
MIP Presolve eliminated 434897 rows and 502 columns.
MIP Presolve modified 166600 coefficients.
Aggregator did 200 substitutions.
Reduced MIP has 799699 rows, 60100 columns, and 3359297 nonzeros.
Reduced MIP has 60100 binaries, 0 generals, 0 SOSs, and 0 indicators.
Presolve time = 14.95 sec. (6039.06 ticks)
Probing fixed 2 vars, tightened 0 bounds.
Probing time = 29.99 sec. (2489.20 ticks)
Tried aggregator 1 time.
Detecting symmetries...
MIP Presolve eliminated 101 rows and 101 columns.
Reduced MIP has 799598 rows, 59999 columns, and 3353165 nonzeros.
Reduced MIP has 59999 binaries, 0 generals, 0 SOSs, and 0 indicators.
Presolve time = 7.92 sec. (3691.06 ticks)
Probing time = 2.46 sec. (232.32 ticks)
Clique table members: 1201886.
MIP emphasis: balance optimality and feasibility.
MIP search method: dynamic search.
Parallel mode: deterministic, using up to 4 threads.
Root relaxation solution time = 27.72 sec. (8004.28 ticks)

        Nodes                                         Cuts/
   Node  Left     Objective  IInf  Best Integer    Best Bound    ItCnt     Gap

      0     0        3.0000   404                      3.0000    50965         
      0     0        3.0000   463                  Cuts: 2744    53879         
      0     0        3.0000   274                    Cuts: 41    54356         
      0     0        3.0000   338                   Cuts: 702    55307         
Detecting symmetries...
      0     2        3.0000   141                      3.0000    55307         
Elapsed time = 473.42 sec. (84561.92 ticks, tree = 0.02 MB, solutions = 0)
      1     3        3.0000   191                      3.0000    55642         
      2     4        3.0000   131                      3.0000    56010         
      4     3        3.0000   147                      3.0000    55313         
      5     5        3.0000   201                      3.0000    56543         
      7     4    infeasible                            3.0000    56708         
      8     7        3.0000   162                      3.0000    57388         
     10     5        3.0000   237                      3.0000    56431         
     12     7    infeasible                            3.0000    58040         
     14     8    infeasible                            3.0000    57987         
     16     8    infeasible                            3.0000    62093         
Elapsed time = 502.71 sec. (90677.82 ticks, tree = 0.24 MB, solutions = 0)
     18    10        3.0000   232                      3.0000    65903         
     20     9    infeasible                            3.0000    69470         
     22     8    infeasible                            3.0000    73054         
     27     8    infeasible                            3.0000    77839         
     28     9        3.0000   245                      3.0000    73630         
     34    12        3.0000   190                      3.0000    81748         
     37    11    infeasible                            3.0000    82340         
     46    15        3.0000   186                      3.0000    86225         
     56    14        3.0000   168                      3.0000    94468         
     75    14    infeasible                            3.0000    94799         
Elapsed time = 559.55 sec. (101813.49 ticks, tree = 19.21 MB, solutions = 0)
     82    10        3.0000   300                      3.0000    96445         
     89     8    infeasible                            3.0000    96768         
     93     9        3.0000   199                      3.0000    96407         
     98    12        3.0000   246                      3.0000    97774         
    107    16    infeasible                            3.0000    99240         
    119    16    infeasible                            3.0000    99500         
    127    17    infeasible                            3.0000    99935         
    143    27    infeasible                            3.0000   101865         
    153    24    infeasible                            3.0000   102231         
    160    14    infeasible                            3.0000   104135         
Elapsed time = 595.15 sec. (112394.40 ticks, tree = 0.35 MB, solutions = 0)
    173    16    infeasible                            3.0000   104526         
    178    18        3.0000   252                      3.0000   105840         
    194    15        3.0000   162                      3.0000   104807         
    202    10        3.0000   256                      3.0000   109267         
    205     7        3.0000   264                      3.0000   109361         
    208     8        3.0000   255                      3.0000   110540         
    218    12        3.0000   247                      3.0000   111248         
    230    13        3.0000   249                      3.0000   111337         
    238    14    infeasible                            3.0000   111669         
    253    21        3.0000   168                      3.0000   114254         
Elapsed time = 636.35 sec. (125213.25 ticks, tree = 7.44 MB, solutions = 0)
    261    19    infeasible                            3.0000   114458         
    272    13        3.0000   293                      3.0000   113632         
    295    15    infeasible                            3.0000   116342         
    308    14    infeasible                            3.0000   116411         
    317    14    infeasible                            3.0000   118919         
    321    13        3.0000   229                      3.0000   118402         
    332    17    infeasible                            3.0000   120964         
    340    26    infeasible                            3.0000   120895         
    347    16        3.0000   268                      3.0000   121889         
    361    16    infeasible                            3.0000   121971         
Elapsed time = 668.12 sec. (135554.18 ticks, tree = 24.88 MB, solutions = 0)
    371    10    infeasible                            3.0000   125060         
    385    10        3.0000   242                      3.0000   125925         
    392    14        3.0000   217                      3.0000   126321         
    395    17        3.0000   191                      3.0000   126437         
    399    13        3.0000   188                      3.0000   128972         
    405    12        3.0000   222                      3.0000   128843         
    419    13        3.0000   258                      3.0000   129622         
    429     9    infeasible                            3.0000   129864         
    433    21        3.0000   224                      3.0000   131530         
    442    14        3.0000   293                      3.0000   133782         
Elapsed time = 699.18 sec. (146931.66 ticks, tree = 25.21 MB, solutions = 0)
    456    14        3.0000   274                      3.0000   134154         
    463    17        3.0000   245                      3.0000   134295         
    470    20        3.0000   274                      3.0000   134868         
    475    16    infeasible                            3.0000   136041         
    486     8    infeasible                            3.0000   137345         
    499    12    infeasible                            3.0000   139907         
    511     7    infeasible                            3.0000   139974         
    519    18        3.0000   278                      3.0000   137799         
    524    17    infeasible                            3.0000   137953         
    530    13    infeasible                            3.0000   141070         
Elapsed time = 723.75 sec. (157407.20 ticks, tree = 18.66 MB, solutions = 0)
    539    15    infeasible                            3.0000   142609         
    556    12    infeasible                            3.0000   142826         
    565    21    infeasible                            3.0000   143580         
    576    17        3.0000   272                      3.0000   142866         
    585     7        3.0000   266                      3.0000   150079         
    591    11    infeasible                            3.0000   150414         

Clique cuts applied:  630
Cover cuts applied:  1
Zero-half cuts applied:  1

Root node processing (before b&c):
  Real time             =  471.27 sec. (83644.52 ticks)
Parallel b&c, 4 threads:
  Real time             =  275.82 sec. (82841.25 ticks)
  Sync time (average)   =   71.14 sec.
  Wait time (average)   =    0.00 sec.
                          ------------
Total (root+branch&cut) =  747.09 sec. (166485.77 ticks)
WARNING: Loading a SolverResults object with a warning status into
    model.name="unknown";
      - termination condition: infeasible
      - message from solver: <undefined>
ERROR: evaluating object as numeric value: x[0,s,0]
        (object: <class 'pyomo.core.base.var._GeneralVarData'>)
    No value for uninitialized NumericValue object x[0,s,0]
